p td 22 48
3 1
4 2
4 1
7 3
8 4
8 1
9 2
9 6
10 2
10 1
10 9
11 1
11 4
11 3
11 8
12 6
13 9
14 3
14 10
14 9
15 4
15 14
15 8
16 7
16 13
17 2
17 14
17 9
17 16
17 5
17 12
18 4
18 17
18 9
18 12
19 16
19 11
20 7
20 1
20 17
20 6
20 12
20 9
21 15
22 8
22 13
22 15
22 20
